\ Model ajuste
\ LP format - for model browsing. Use MPS format to capture full model detail.
Minimize
  - 706059.3183832293 coef_ajuste + 353029.6591916158 Constant + [
   706059.3183831645 coef_ajuste ^2 ] / 2 
Subject To
Bounds
 coef_ajuste <= 1
 Constant = 1
End
